Traveling Salesman Problem/TSP_generados/Aleatorio1620390929_9.tsp
NAME: Aleatorio1620390929_9.tsp
COMMENT: Randomly generated scenario
TYPE: TSP
DIMENSION: 9
EDGE_WEIGHT_TYPE: ATT
NODE_COORD_SECTION
1 44.36 16.06
2 13.68 11.76
3 36.42 30.52
4 18.72 35.53
5 49.96 45.41
6 13.75 22.65
7 46.42 24.71
8 29.35 10.52
9 22.7 0.7
