Traveling Salesman Problem/TSP_generados/Aleatorio1620390929_9.opt.tour
NAME: Aleatorio1620390929_9.opt.tour
COMMENT: Optimal solution for Aleatorio1620390929_9 (135.24068988407697)
TYPE: TOUR
DIMENSION: 9
TOUR_SECTION
1 8 9 2 6 4 3 5 7
-1
EOF
